; benchmark generated from python API
(set-info :status unknown)
(declare-fun x_month () Int)
(declare-fun x_day () Int)
(declare-fun x_year () Int)
(declare-fun y_month () Int)
(declare-fun y_day () Int)
(declare-fun y_year () Int)
(assert
 (>= x_month 1))
(assert
 (<= x_month 12))
(assert
 (>= x_day 1))
(assert
 (<= x_day 31))
(assert
 (let (($x366 (<= x_day 28)))
 (let (($x497 (<= x_day 29)))
 (let (($x392 (= (mod x_year 400) 0)))
 (let (($x547 (= (mod x_year 4) 0)))
 (let (($x418 (ite (or (and $x547 (and (distinct (mod x_year 100) 0) true)) $x392) $x497 $x366)))
 (let (($x429 (= x_month 2)))
 (ite $x429 $x418 true))))))))
(assert
 (let (($x393 (<= x_day 30)))
 (let (($x445 (or (= x_month 4) (= x_month 6) (= x_month 9) (= x_month 11))))
 (ite $x445 $x393 true))))
(assert
 (>= y_month 1))
(assert
 (<= y_month 12))
(assert
 (>= y_day 1))
(assert
 (<= y_day 31))
(assert
 (let (($x544 (<= y_day 28)))
 (let (($x121 (<= y_day 29)))
 (let (($x147 (= (mod y_year 400) 0)))
 (let (($x545 (= (mod y_year 4) 0)))
 (let (($x482 (ite (or (and $x545 (and (distinct (mod y_year 100) 0) true)) $x147) $x121 $x544)))
 (let (($x590 (= y_month 2)))
 (ite $x590 $x482 true))))))))
(assert
 (let (($x186 (<= y_day 30)))
 (let (($x751 (or (= y_month 4) (= y_month 6) (= y_month 9) (= y_month 11))))
 (ite $x751 $x186 true))))
(assert
 (let (($x125 (= x_day 29)))
 (let (($x429 (= x_month 2)))
 (let (($x245 (= x_year 2020)))
 (and $x245 $x429 $x125)))))
(assert
 (let (($x280 (or (= (+ (mod (- (+ x_month 0) 1) 12) 1) 4) (= (+ (mod (- (+ x_month 0) 1) 12) 1) 6) (= (+ (mod (- (+ x_month 0) 1) 12) 1) 9) (= (+ (mod (- (+ x_month 0) 1) 12) 1) 11))))
 (let ((?x436 (+ (+ x_year 1) (div (- (+ x_month 0) 1) 12))))
 (let (($x489 (or (and (= (mod ?x436 4) 0) (and (distinct (mod ?x436 100) 0) true)) (= (mod ?x436 400) 0))))
 (let ((?x704 (ite (= (+ (mod (- (+ x_month 0) 1) 12) 1) 2) (ite $x489 29 28) (ite $x280 30 31))))
 (let ((?x567 (ite (< x_day 1) 1 (ite (> x_day ?x704) ?x704 x_day))))
 (let ((?x770 (ite (< ?x567 1) 1 (ite (> ?x567 ?x704) ?x704 ?x567))))
 (let (($x554 (and (= (mod (+ ?x436 (* (div 0 146097) 400)) 4) 0) (and (distinct (mod (+ ?x436 (* (div 0 146097) 400)) 100) 0) true))))
 (let (($x741 (or $x554 (= (mod (+ ?x436 (* (div 0 146097) 400)) 400) 0))))
 (let ((?x743 (ite (= 1 (+ (mod (- (+ x_month 0) 1) 12) 1)) (ite $x741 0 0) 0)))
 (let ((?x735 (ite (= 2 (+ (mod (- (+ x_month 0) 1) 12) 1)) (ite $x741 31 31) ?x743)))
 (let ((?x238 (ite (= 3 (+ (mod (- (+ x_month 0) 1) 12) 1)) (ite $x741 60 59) ?x735)))
 (let ((?x703 (ite (= 4 (+ (mod (- (+ x_month 0) 1) 12) 1)) (ite $x741 91 90) ?x238)))
 (let ((?x662 (ite (= 5 (+ (mod (- (+ x_month 0) 1) 12) 1)) (ite $x741 121 120) ?x703)))
 (let ((?x681 (ite (= 6 (+ (mod (- (+ x_month 0) 1) 12) 1)) (ite $x741 152 151) ?x662)))
 (let ((?x136 (ite (= 7 (+ (mod (- (+ x_month 0) 1) 12) 1)) (ite $x741 182 181) ?x681)))
 (let ((?x738 (ite (= 8 (+ (mod (- (+ x_month 0) 1) 12) 1)) (ite $x741 213 212) ?x136)))
 (let ((?x262 (ite (= 9 (+ (mod (- (+ x_month 0) 1) 12) 1)) (ite $x741 244 243) ?x738)))
 (let ((?x543 (ite (= 10 (+ (mod (- (+ x_month 0) 1) 12) 1)) (ite $x741 274 273) ?x262)))
 (let ((?x192 (ite (= 11 (+ (mod (- (+ x_month 0) 1) 12) 1)) (ite $x741 305 304) ?x543)))
 (let ((?x521 (ite (= 12 (+ (mod (- (+ x_month 0) 1) 12) 1)) (ite $x741 335 334) ?x192)))
 (let ((?x110 (+ (* 365 (- (+ ?x436 (* (div 0 146097) 400)) 1)) (div (- (+ ?x436 (* (div 0 146097) 400)) 1) 4))))
 (let ((?x648 (+ (- ?x110 (div (- (+ ?x436 (* (div 0 146097) 400)) 1) 100)) (div (- (+ ?x436 (* (div 0 146097) 400)) 1) 400))))
 (let ((?x558 (+ (+ (+ ?x648 ?x521) (- ?x770 1)) (mod 0 146097))))
 (let ((?x179 (mod ?x558 146097)))
 (let ((?x656 (div ?x179 36524)))
 (let ((?x334 (ite (<= 4 ?x656) 3 ?x656)))
 (let ((?x815 (- ?x179 (* ?x334 36524))))
 (let ((?x315 (mod ?x815 1461)))
 (let ((?x300 (div ?x315 365)))
 (let ((?x308 (ite (<= 4 ?x300) 3 ?x300)))
 (let ((?x330 (+ (+ (* (div ?x558 146097) 400) (* ?x334 100)) (* (div ?x815 1461) 4))))
 (let ((?x335 (+ (+ ?x330 ?x308) 1)))
 (let (($x804 (or (and (= (mod ?x335 4) 0) (and (distinct (mod ?x335 100) 0) true)) (= (mod ?x335 400) 0))))
 (let ((?x650 (- ?x315 (* ?x308 365))))
 (let ((?x589 (ite $x804 31 31)))
 (let (($x586 (>= ?x650 ?x589)))
 (let ((?x324 (ite $x586 (+ (- ?x650 ?x589) 1) (+ (- ?x650 (ite $x804 0 0)) 1))))
 (let ((?x251 (ite $x804 60 59)))
 (let (($x214 (>= ?x650 ?x251)))
 (let ((?x204 (ite $x804 91 90)))
 (let (($x322 (>= ?x650 ?x204)))
 (let ((?x553 (ite $x322 (+ (- ?x650 ?x204) 1) (ite $x214 (+ (- ?x650 ?x251) 1) ?x324))))
 (let ((?x232 (ite $x804 121 120)))
 (let (($x810 (>= ?x650 ?x232)))
 (let ((?x107 (ite $x804 152 151)))
 (let (($x233 (>= ?x650 ?x107)))
 (let ((?x327 (ite $x233 (+ (- ?x650 ?x107) 1) (ite $x810 (+ (- ?x650 ?x232) 1) ?x553))))
 (let ((?x109 (ite $x804 182 181)))
 (let (($x270 (>= ?x650 ?x109)))
 (let ((?x646 (ite $x804 213 212)))
 (let (($x194 (>= ?x650 ?x646)))
 (let ((?x483 (ite $x194 (+ (- ?x650 ?x646) 1) (ite $x270 (+ (- ?x650 ?x109) 1) ?x327))))
 (let ((?x817 (ite $x804 244 243)))
 (let (($x177 (>= ?x650 ?x817)))
 (let ((?x184 (ite $x804 274 273)))
 (let (($x151 (>= ?x650 ?x184)))
 (let ((?x229 (ite $x151 (+ (- ?x650 ?x184) 1) (ite $x177 (+ (- ?x650 ?x817) 1) ?x483))))
 (let ((?x234 (ite $x804 305 304)))
 (let (($x560 (>= ?x650 ?x234)))
 (let ((?x805 (ite $x804 335 334)))
 (let (($x146 (>= ?x650 ?x805)))
 (let ((?x297 (ite $x146 (+ (- ?x650 ?x805) 1) (ite $x560 (+ (- ?x650 ?x234) 1) ?x229))))
 (let (($x307 (= 0 0)))
 (let ((?x156 (ite $x810 5 (ite $x322 4 (ite $x214 3 (ite $x586 2 1))))))
 (let ((?x148 (ite $x177 9 (ite $x194 8 (ite $x270 7 (ite $x233 6 ?x156))))))
 (let ((?x449 (+ (mod (- (+ x_month 0) 1) 12) 1)))
 (let (($x746 (= y_month (ite $x307 ?x449 (ite $x146 12 (ite $x560 11 (ite $x151 10 ?x148)))))))
 (and (= y_year (ite $x307 ?x436 ?x335)) $x746 (= y_day (ite $x307 ?x770 ?x297)))))))))))))))))))))))))))))))))))))))))))))))))))))))))))))))))))))))
(assert
 (not (and (= y_year 2021) (= y_month 2) (= y_day 28))))
(check-sat)
